<number of tasks>
100

<cycle time>
1000

<order strength>
0.597


<task times>
1 232
2 150
3 91
4 281
5 44
6 151
7 299
8 503
9 138
10 86
11 472
12 75
13 98
14 185
15 240
16 357
17 91
18 558
19 83
20 279
21 431
22 304
23 26
24 469
25 30
26 229
27 64
28 520
29 328
30 71
31 224
32 261
33 219
34 228
35 258
36 195
37 190
38 100
39 236
40 239
41 310
42 36
43 60
44 295
45 493
46 215
47 138
48 95
49 340
50 399
51 476
52 207
53 500
54 180
55 35
56 76
57 542
58 124
59 87
60 155
61 198
62 224
63 493
64 231
65 83
66 38
67 422
68 46
69 207
70 182
71 152
72 134
73 351
74 381
75 282
76 369
77 245
78 419
79 53
80 93
81 476
82 93
83 61
84 193
85 138
86 471
87 150
88 160
89 242
90 141
91 216
92 172
93 516
94 539
95 205
96 205
97 150
98 87
99 184
100 136

<precedence relations>
1,5
1,7
1,9
1,10
2,6
2,9
2,10
3,23
4,6
4,7
4,8
4,9
4,10
5,11
6,12
6,14
6,15
6,16
6,17
7,13
7,15
7,16
7,17
8,15
8,16
9,15
9,16
9,17
10,15
10,16
10,17
11,18
12,19
13,20
14,22
15,21
15,23
15,24
16,23
16,24
17,25
18,30
19,31
20,27
21,29
22,30
23,26
23,30
23,33
24,28
24,30
25,30
25,31
25,32
25,33
26,34
27,36
28,35
29,37
30,36
30,37
30,38
31,36
31,37
31,38
32,36
32,37
32,38
33,36
33,37
33,38
34,39
35,40
36,41
36,42
36,43
37,41
37,42
37,43
38,41
38,42
38,43
39,45
40,44
41,46
41,47
41,48
42,46
42,47
42,48
43,46
43,47
44,49
45,52
46,50
46,52
46,74
46,84
47,51
47,53
47,54
48,54
48,65
49,55
50,56
51,57
52,58
52,79
53,59
53,60
53,61
54,91
55,62
56,64
57,65
58,63
59,67
59,74
60,66
60,92
61,68
62,69
63,71
64,72
65,70
65,84
66,73
66,74
67,78
67,79
67,84
68,73
68,84
69,75
70,77
71,78
72,78
73,76
73,79
74,79
74,86
74,90
74,96
75,84
76,80
77,83
78,81
78,82
78,85
78,86
79,99
80,90
81,88
82,89
83,87
84,90
84,97
85,92
85,99
86,91
86,93
87,95
88,94
89,96
91,97
94,98
95,99
97,100

<end>
